c nIsolatedPIs 0
c maxPI 32
p cnf 231 598
c gate 33 -14 -30 0
-14 -33 0
-30 -33 0
14 30 33 0
c gate 34 14 30 0
14 -34 0
30 -34 0
-14 -30 34 0
c gate 35 -33 -34 0
-33 -35 0
-34 -35 0
33 34 35 0
c gate 36 12 28 0
12 -36 0
28 -36 0
-12 -28 36 0
c gate 37 13 29 0
13 -37 0
29 -37 0
-13 -29 37 0
c gate 38 -36 -37 0
-36 -38 0
-37 -38 0
36 37 38 0
c gate 39 35 -38 0
35 -39 0
-38 -39 0
-35 38 39 0
c gate 40 -35 38 0
-35 -40 0
38 -40 0
35 -38 40 0
c gate 41 -39 -40 0
-39 -41 0
-40 -41 0
39 40 41 0
c gate 42 -13 -29 0
-13 -42 0
-29 -42 0
13 29 42 0
c gate 43 -12 -28 0
-12 -43 0
-28 -43 0
12 28 43 0
c gate 44 -36 -43 0
-36 -44 0
-43 -44 0
36 43 44 0
c gate 45 -11 -27 0
-11 -45 0
-27 -45 0
11 27 45 0
c gate 46 -10 -26 0
-10 -46 0
-26 -46 0
10 26 46 0
c gate 47 9 25 0
9 -47 0
25 -47 0
-9 -25 47 0
c gate 48 -6 -22 0
-6 -48 0
-22 -48 0
6 22 48 0
c gate 49 5 21 0
5 -49 0
21 -49 0
-5 -21 49 0
c gate 50 -3 -19 0
-3 -50 0
-19 -50 0
3 19 50 0
c gate 51 2 18 0
2 -51 0
18 -51 0
-2 -18 51 0
c gate 52 -2 -18 0
-2 -52 0
-18 -52 0
2 18 52 0
c gate 53 1 17 0
1 -53 0
17 -53 0
-1 -17 53 0
c gate 54 -52 53 0
-52 -54 0
53 -54 0
52 -53 54 0
c gate 55 -51 -54 0
-51 -55 0
-54 -55 0
51 54 55 0
c gate 56 -50 -55 0
-50 -56 0
-55 -56 0
50 55 56 0
c gate 57 4 20 0
4 -57 0
20 -57 0
-4 -20 57 0
c gate 58 3 19 0
3 -58 0
19 -58 0
-3 -19 58 0
c gate 59 -57 -58 0
-57 -59 0
-58 -59 0
57 58 59 0
c gate 60 -56 59 0
-56 -60 0
59 -60 0
56 -59 60 0
c gate 61 -4 -20 0
-4 -61 0
-20 -61 0
4 20 61 0
c gate 62 -5 -21 0
-5 -62 0
-21 -62 0
5 21 62 0
c gate 63 -61 -62 0
-61 -63 0
-62 -63 0
61 62 63 0
c gate 64 -60 63 0
-60 -64 0
63 -64 0
60 -63 64 0
c gate 65 -49 -64 0
-49 -65 0
-64 -65 0
49 64 65 0
c gate 66 -48 -65 0
-48 -66 0
-65 -66 0
48 65 66 0
c gate 67 6 22 0
6 -67 0
22 -67 0
-6 -22 67 0
c gate 68 7 -23 0
7 -68 0
-23 -68 0
-7 23 68 0
c gate 69 -7 23 0
-7 -69 0
23 -69 0
7 -23 69 0
c gate 70 -68 -69 0
-68 -70 0
-69 -70 0
68 69 70 0
c gate 71 -67 -70 0
-67 -71 0
-70 -71 0
67 70 71 0
c gate 72 -66 71 0
-66 -72 0
71 -72 0
66 -71 72 0
c gate 73 8 24 0
8 -73 0
24 -73 0
-8 -24 73 0
c gate 74 -8 -24 0
-8 -74 0
-24 -74 0
8 24 74 0
c gate 75 -73 -74 0
-73 -75 0
-74 -75 0
73 74 75 0
c gate 76 72 75 0
72 -76 0
75 -76 0
-72 -75 76 0
c gate 77 -7 -23 0
-7 -77 0
-23 -77 0
7 23 77 0
c gate 78 -73 77 0
-73 -78 0
77 -78 0
73 -77 78 0
c gate 79 -9 -25 0
-9 -79 0
-25 -79 0
9 25 79 0
c gate 80 -74 -79 0
-74 -80 0
-79 -80 0
74 79 80 0
c gate 81 -78 80 0
-78 -81 0
80 -81 0
78 -80 81 0
c gate 82 -76 81 0
-76 -82 0
81 -82 0
76 -81 82 0
c gate 83 -47 -82 0
-47 -83 0
-82 -83 0
47 82 83 0
c gate 84 -46 -83 0
-46 -84 0
-83 -84 0
46 83 84 0
c gate 85 11 27 0
11 -85 0
27 -85 0
-11 -27 85 0
c gate 86 10 26 0
10 -86 0
26 -86 0
-10 -26 86 0
c gate 87 -85 -86 0
-85 -87 0
-86 -87 0
85 86 87 0
c gate 88 -84 87 0
-84 -88 0
87 -88 0
84 -87 88 0
c gate 89 -45 -88 0
-45 -89 0
-88 -89 0
45 88 89 0
c gate 90 44 89 0
44 -90 0
89 -90 0
-44 -89 90 0
c gate 91 38 -90 0
38 -91 0
-90 -91 0
-38 90 91 0
c gate 92 -42 -91 0
-42 -92 0
-91 -92 0
42 91 92 0
c gate 93 35 -92 0
35 -93 0
-92 -93 0
-35 92 93 0
c gate 94 -35 92 0
-35 -94 0
92 -94 0
35 -92 94 0
c gate 95 -93 -94 0
-93 -95 0
-94 -95 0
93 94 95 0
c gate 96 41 95 0
41 -96 0
95 -96 0
-41 -95 96 0
c gate 97 -41 -95 0
-41 -97 0
-95 -97 0
41 95 97 0
c gate 98 -96 -97 0
-96 -98 0
-97 -98 0
96 97 98 0
c gate 99 10 -26 0
10 -99 0
-26 -99 0
-10 26 99 0
c gate 100 8 -24 0
8 -100 0
-24 -100 0
-8 24 100 0
c gate 101 -47 -79 0
-47 -101 0
-79 -101 0
47 79 101 0
c gate 102 -100 -101 0
-100 -102 0
-101 -102 0
100 101 102 0
c gate 103 -9 25 0
-9 -103 0
25 -103 0
9 -25 103 0
c gate 104 -10 26 0
-10 -104 0
26 -104 0
10 -26 104 0
c gate 105 -103 -104 0
-103 -105 0
-104 -105 0
103 104 105 0
c gate 106 -102 105 0
-102 -106 0
105 -106 0
102 -105 106 0
c gate 107 -99 -106 0
-99 -107 0
-106 -107 0
99 106 107 0
c gate 108 -4 20 0
-4 -108 0
20 -108 0
4 -20 108 0
c gate 109 -3 19 0
-3 -109 0
19 -109 0
3 -19 109 0
c gate 110 2 -18 0
2 -110 0
-18 -110 0
-2 18 110 0
c gate 111 -2 18 0
-2 -111 0
18 -111 0
2 -18 111 0
c gate 112 -1 17 0
-1 -112 0
17 -112 0
1 -17 112 0
c gate 113 -111 -112 0
-111 -113 0
-112 -113 0
111 112 113 0
c gate 114 3 -19 0
3 -114 0
-19 -114 0
-3 19 114 0
c gate 115 -113 -114 0
-113 -115 0
-114 -115 0
113 114 115 0
c gate 116 -110 115 0
-110 -116 0
115 -116 0
110 -115 116 0
c gate 117 -109 -116 0
-109 -117 0
-116 -117 0
109 116 117 0
c gate 118 -108 117 0
-108 -118 0
117 -118 0
108 -117 118 0
c gate 119 4 -20 0
4 -119 0
-20 -119 0
-4 20 119 0
c gate 120 -49 -62 0
-49 -120 0
-62 -120 0
49 62 120 0
c gate 121 -119 -120 0
-119 -121 0
-120 -121 0
119 120 121 0
c gate 122 -118 121 0
-118 -122 0
121 -122 0
118 -121 122 0
c gate 123 -48 -67 0
-48 -123 0
-67 -123 0
48 67 123 0
c gate 124 -5 21 0
-5 -124 0
21 -124 0
5 -21 124 0
c gate 125 -123 -124 0
-123 -125 0
-124 -125 0
123 124 125 0
c gate 126 -122 125 0
-122 -126 0
125 -126 0
122 -125 126 0
c gate 127 -69 126 0
-69 -127 0
126 -127 0
69 -126 127 0
c gate 128 6 -22 0
6 -128 0
-22 -128 0
-6 22 128 0
c gate 129 -69 128 0
-69 -129 0
128 -129 0
69 -128 129 0
c gate 130 -68 -129 0
-68 -130 0
-129 -130 0
68 129 130 0
c gate 131 -127 130 0
-127 -131 0
130 -131 0
127 -130 131 0
c gate 132 -75 -131 0
-75 -132 0
-131 -132 0
75 131 132 0
c gate 133 105 132 0
105 -133 0
132 -133 0
-105 -132 133 0
c gate 134 107 -133 0
107 -134 0
-133 -134 0
-107 133 134 0
c gate 135 -45 -85 0
-45 -135 0
-85 -135 0
45 85 135 0
c gate 136 134 -135 0
134 -136 0
-135 -136 0
-134 135 136 0
c gate 137 115 117 0
115 -137 0
117 -137 0
-115 -117 137 0
c gate 138 -108 121 0
-108 -138 0
121 -138 0
108 -121 138 0
c gate 139 137 138 0
137 -139 0
138 -139 0
-137 -138 139 0
c gate 140 -126 -139 0
-126 -140 0
-139 -140 0
126 139 140 0
c gate 141 70 -123 0
70 -141 0
-123 -141 0
-70 123 141 0
c gate 142 -140 -141 0
-140 -142 0
-141 -142 0
140 141 142 0
c gate 143 137 -138 0
137 -143 0
-138 -143 0
-137 138 143 0
c gate 144 110 112 0
110 -144 0
112 -144 0
-110 -112 144 0
c gate 145 -15 -31 0
-15 -145 0
-31 -145 0
15 31 145 0
c gate 146 15 31 0
15 -146 0
31 -146 0
-15 -31 146 0
c gate 147 -145 -146 0
-145 -147 0
-146 -147 0
145 146 147 0
c gate 148 -33 -93 0
-33 -148 0
-93 -148 0
33 93 148 0
c gate 149 147 -148 0
147 -149 0
-148 -149 0
-147 148 149 0
c gate 150 -145 -149 0
-145 -150 0
-149 -150 0
145 149 150 0
c gate 151 16 -32 0
16 -151 0
-32 -151 0
-16 32 151 0
c gate 152 -16 32 0
-16 -152 0
32 -152 0
16 -32 152 0
c gate 153 -151 -152 0
-151 -153 0
-152 -153 0
151 152 153 0
c gate 154 -150 -153 0
-150 -154 0
-153 -154 0
150 153 154 0
c gate 155 -34 -39 0
-34 -155 0
-39 -155 0
34 39 155 0
c gate 156 147 155 0
147 -156 0
155 -156 0
-147 -155 156 0
c gate 157 -145 -156 0
-145 -157 0
-156 -157 0
145 156 157 0
c gate 158 154 157 0
154 -158 0
157 -158 0
-154 -157 158 0
c gate 159 -144 -158 0
-144 -159 0
-158 -159 0
144 158 159 0
c gate 160 -137 -159 0
-137 -160 0
-159 -160 0
137 159 160 0
c gate 161 -153 -157 0
-153 -161 0
-157 -161 0
153 157 161 0
c gate 162 150 161 0
150 -162 0
161 -162 0
-150 -161 162 0
c gate 163 159 -162 0
159 -163 0
-162 -163 0
-159 162 163 0
c gate 164 -47 -86 0
-47 -164 0
-86 -164 0
47 86 164 0
c gate 165 -81 164 0
-81 -165 0
164 -165 0
81 -164 165 0
c gate 166 -45 -46 0
-45 -166 0
-46 -166 0
45 46 166 0
c gate 167 -165 166 0
-165 -167 0
166 -167 0
165 -166 167 0
c gate 168 -85 -167 0
-85 -168 0
-167 -168 0
85 167 168 0
c gate 169 -44 89 0
-44 -169 0
89 -169 0
44 -89 169 0
c gate 170 168 -169 0
168 -170 0
-169 -170 0
-168 169 170 0
c gate 171 44 -89 0
44 -171 0
-89 -171 0
-44 89 171 0
c gate 172 -168 -171 0
-168 -172 0
-171 -172 0
168 171 172 0
c gate 173 -170 -172 0
-170 -173 0
-172 -173 0
170 172 173 0
c gate 174 98 173 0
98 -174 0
173 -174 0
-98 -173 174 0
c gate 175 150 153 0
150 -175 0
153 -175 0
-150 -153 175 0
c gate 176 -154 -175 0
-154 -176 0
-175 -176 0
154 175 176 0
c gate 177 153 157 0
153 -177 0
157 -177 0
-153 -157 177 0
c gate 178 -161 -177 0
-161 -178 0
-177 -178 0
161 177 178 0
c gate 179 -176 178 0
-176 -179 0
178 -179 0
176 -178 179 0
c gate 180 176 -178 0
176 -180 0
-178 -180 0
-176 178 180 0
c gate 181 -147 -155 0
-147 -181 0
-155 -181 0
147 155 181 0
c gate 182 -156 -181 0
-156 -182 0
-181 -182 0
156 181 182 0
c gate 183 -147 148 0
-147 -183 0
148 -183 0
147 -148 183 0
c gate 184 -149 -183 0
-149 -184 0
-183 -184 0
149 183 184 0
c gate 185 182 -184 0
182 -185 0
-184 -185 0
-182 184 185 0
c gate 186 -182 184 0
-182 -186 0
184 -186 0
182 -184 186 0
c gate 187 -37 -42 0
-37 -187 0
-42 -187 0
37 42 187 0
c gate 188 90 -187 0
90 -188 0
-187 -188 0
-90 187 188 0
c gate 189 -97 -188 0
-97 -189 0
-188 -189 0
97 188 189 0
c gate 190 -186 -189 0
-186 -190 0
-189 -190 0
186 189 190 0
c gate 191 -185 -190 0
-185 -191 0
-190 -191 0
185 190 191 0
c gate 192 -180 -191 0
-180 -192 0
-191 -192 0
180 191 192 0
c gate 193 -179 -192 0
-179 -193 0
-192 -193 0
179 192 193 0
c gate 194 -174 193 0
-174 -194 0
193 -194 0
174 -193 194 0
c gate 195 -76 -90 0
-76 -195 0
-90 -195 0
76 90 195 0
c gate 196 98 195 0
98 -196 0
195 -196 0
-98 -195 196 0
c gate 197 -194 -196 0
-194 -197 0
-196 -197 0
194 196 197 0
c gate 198 163 197 0
163 -198 0
197 -198 0
-163 -197 198 0
c gate 199 -160 -198 0
-160 -199 0
-198 -199 0
160 198 199 0
c gate 200 -143 199 0
-143 -200 0
199 -200 0
143 -199 200 0
c gate 201 140 -200 0
140 -201 0
-200 -201 0
-140 200 201 0
c gate 202 -142 -201 0
-142 -202 0
-201 -202 0
142 201 202 0
c gate 203 75 130 0
75 -203 0
130 -203 0
-75 -130 203 0
c gate 204 -131 203 0
-131 -204 0
203 -204 0
131 -203 204 0
c gate 205 202 -204 0
202 -205 0
-204 -205 0
-202 204 205 0
c gate 206 -132 -205 0
-132 -206 0
-205 -206 0
132 205 206 0
c gate 207 -99 -104 0
-99 -207 0
-104 -207 0
99 104 207 0
c gate 208 -101 207 0
-101 -208 0
207 -208 0
101 -207 208 0
c gate 209 132 -208 0
132 -209 0
-208 -209 0
-132 208 209 0
c gate 210 -206 -209 0
-206 -210 0
-209 -210 0
206 209 210 0
c gate 211 -134 135 0
-134 -211 0
135 -211 0
134 -135 211 0
c gate 212 -136 -211 0
-136 -212 0
-211 -212 0
136 211 212 0
c gate 213 107 -212 0
107 -213 0
-212 -213 0
-107 212 213 0
c gate 214 210 -213 0
210 -214 0
-213 -214 0
-210 213 214 0
c gate 215 -136 -214 0
-136 -215 0
-214 -215 0
136 214 215 0
c gate 216 -35 -147 0
-35 -216 0
-147 -216 0
35 147 216 0
c gate 217 -44 153 0
-44 -217 0
153 -217 0
44 -153 217 0
c gate 218 -187 217 0
-187 -218 0
217 -218 0
187 -217 218 0
c gate 219 216 218 0
216 -219 0
218 -219 0
-216 -218 219 0
c gate 220 136 219 0
136 -220 0
219 -220 0
-136 -219 220 0
c gate 221 -215 -220 0
-215 -221 0
-220 -221 0
215 220 221 0
c gate 222 -173 -188 0
-173 -222 0
-188 -222 0
173 188 222 0
c gate 223 221 -222 0
221 -223 0
-222 -223 0
-221 222 223 0
c gate 224 72 -173 0
72 -224 0
-173 -224 0
-72 173 224 0
c gate 225 -90 -224 0
-90 -225 0
-224 -225 0
90 224 225 0
c gate 226 -188 -225 0
-188 -226 0
-225 -226 0
188 225 226 0
c gate 227 -221 226 0
-221 -227 0
226 -227 0
221 -226 227 0
c gate 228 -223 -227 0
-223 -228 0
-227 -228 0
223 227 228 0
c gate 229 98 228 0
98 -229 0
228 -229 0
-98 -228 229 0
c gate 230 -98 -228 0
-98 -230 0
-228 -230 0
98 228 230 0
c gate 231 -229 -230 0
-229 -231 0
-230 -231 0
229 230 231 0
c PO
231 0
